file-name,time_till_loop,total_elapsed_time,minCost,correctness
../inputs/selected-inputs/E-n101-k8.vrp,0.000000,0.000682,1653.924109,VALID
Route #1: 88 11 64 62
Route #2: 19 49
Route #3: 1 66 20
Route #4: 51 71 65 35 9 50
Route #5: 79 78 34 81 33
Route #6: 83 45
Route #7: 68 29 24 80 12
Route #8: 76 3 77 28
Route #9: 89 60 84 17 5
Route #10: 13 42 43 87
Route #11: 6 61 86
Route #12: 94 59 98 91 44 16 85 93 99 96
Route #13: 57 15
Route #14: 69 30 70
Route #15: 95 92 37 100 38 14 97
Route #16: 56 23 75 72 21
Route #17: 53 40 73 74 22
Route #18: 26 25 55 54
Route #19: 4 67 39
Route #20: 58 2 41
Route #21: 27 32 90 63 10 31
Route #22: 18 8 46
Route #23: 52 7 48 47 36 82
Cost 1653.924109
